NumberOfSpecies                     2
NumberOfAtoms                       200
%block ChemicalSpeciesLabel
 1   6    C   
 2   26   Fe  
%endblock ChemicalSpeciesLabel

LatticeConstant                     1.0 Bohr
%block LatticeVectors
 26.919159374   0.0            0.0           
 0.0            26.919159374   0.0           
 0.0            0.0            21.535327499  
%endblock LatticeVectors

AtomicCoordinatesFormat             NotScaledCartesianBohr
%block AtomicCoordinatesAndAtomicSpecies
 -0.465934596   -0.663525654   -0.289297722   2  
 1.897770242    3.850641773    3.25766033     2  
 -0.04209213    -0.423393267   4.730092975    2  
 2.078407007    2.469894871    7.948279606    2  
 -0.662498666   -0.12361599    11.627052293   2  
 2.324728758    3.145709492    14.184311496   2  
 -0.18318442    -0.347886337   16.590129123   2  
 2.332763679    0.935452276    19.077482978   1  
 0.027505281    6.999988868    0.23281026     1  
 3.401739072    7.799892483    1.812503178    2  
 -0.526770499   5.053537381    6.117628354    1  
 2.505691444    7.096317764    6.875272739    2  
 -0.191303005   5.489014788    10.77000313    2  
 2.523270721    8.290187676    13.844244812   2  
 0.108643349    5.969318154    15.818217517   1  
 1.896463712    7.793318219    18.547146173   2  
 -0.009998542   10.942682032   -0.006025408   2  
 2.915114432    13.438838002   2.377622046    2  
 -0.243113586   11.336224177   5.482651929    2  
 2.713115015    13.837396189   8.598883779    2  
 -0.024997732   10.724313984   10.74055487    2  
 3.004759034    12.251316721   12.634248557   1  
 1.535566662    12.393287429   16.200378136   2  
 2.229672108    13.768877391   19.69311345    1  
 -0.560456267   15.539095836   0.020843567    2  
 2.191948492    18.749351039   1.837500921    2  
 0.014893063    16.19324751    5.177453187    2  
 2.239240045    18.569069786   8.399386579    2  
 1.859255128    15.95412343    12.733843739   2  
 1.367404666    19.468766284   13.877232722   1  
 0.654944395    17.149660249   17.428547922   2  
 1.818641408    20.309350219   19.504701273   1  
 -1.931045079   20.221542862   -1.025988414   2  
 2.553039284    23.549916473   2.378193409    2  
 -0.851614025   21.009728259   4.745450789    2  
 2.345800783    24.007109832   8.242988343    2  
 -0.512239446   21.891475888   11.651487223   2  
 2.943692446    24.549093106   13.811405423   2  
 -0.038661185   21.856635387   16.42713203    2  
 2.937962419    24.034188352   18.934683208   2  
 5.462580811    -0.187459474   0.184564988    2  
 7.977106827    3.147242698    2.552908895    2  
 5.210305567    -0.333076054   5.169586606    2  
 7.114809655    3.518088931    7.051782119    2  
 5.264136706    0.387455913    10.754729148   2  
 8.430996323    2.891139854    13.375028481   2  
 5.388298629    0.637604047    16.597538607   2  
 8.692557335    2.948143181    19.356534184   2  
 4.062200349    4.003487573    -1.102183351   2  
 8.393427773    7.803416147    2.643728477    2  
 5.598794877    6.503390209    4.825993491    1  
 8.205684952    7.993811869    7.488862588    2  
 5.028945193    5.300182776    10.935554778   2  
 8.362391907    7.99394806     13.01283168    2  
 5.895156052    5.751337637    16.369347254   2  
 8.887108001    7.540015553    19.586265134   2  
 5.275666085    7.691543566    -1.482529554   1  
 7.73984108     13.663541417   2.23411236     2  
 5.213685922    10.691695992   5.267711725    2  
 7.784870297    13.468346822   7.948394782    2  
 5.059470842    10.084099704   10.258158581   2  
 6.317893745    14.169224523   12.19349022    2  
 5.463099983    11.427799279   19.814981544   2  
 8.314024227    14.023966132   19.312533848   1  
 5.240965124    16.024056581   -0.721373222   2  
 8.419754692    18.704011646   2.402005665    2  
 5.274304138    16.307105395   5.376973938    2  
 8.147987315    18.88273032    8.629534868    2  
 5.32525514     16.528719206   9.48158586     1  
 8.063013306    18.595434864   13.390518923   2  
 5.326132084    15.11453801    16.45778873    2  
 8.401521475    18.932331102   18.321095956   2  
 5.357106566    20.861871164   -0.420983455   2  
 8.019034823    23.509860434   2.79847425     2  
 5.121998875    21.046200707   5.534094917    2  
 7.767487506    23.792414674   8.411464981    2  
 4.478980173    20.810699519   11.456555987   2  
 7.751621652    24.169121718   13.346876334   2  
 4.345918591    20.177461016   16.357985169   2  
 7.780597089    23.779905699   18.36199952    2  
 10.288683255   -0.636824346   0.029193775    2  
 13.229065985   2.869328885    1.539386529    2  
 10.504526883   -0.20509088    5.4243787      2  
 14.571137745   4.359709887    8.351403018    1  
 10.933073473   0.144440384    10.116841191   2  
 14.131649983   2.864326266    12.307857077   2  
 10.731857163   -0.173759693   16.18161684    2  
 15.464227932   3.283654015    15.946912477   1  
 10.532298551   5.350274307    0.563571807    1  
 16.811042243   8.885459592    2.113142888    2  
 11.56257426    4.866006808    5.414252678    2  
 14.26787201    8.431576313    7.764030846    2  
 11.157494489   5.272787031    10.009530465   2  
 13.085926224   8.440575966    13.354729183   2  
 11.965738772   5.037228217    16.376670729   2  
 13.6805649     7.072797849    20.688058359   2  
 10.797159415   11.409986887   -0.253859001   2  
 11.355094954   14.258107012   2.445881651    1  
 11.404260532   11.158530643   4.745503734    2  
 14.66077247    13.621136621   7.264840424    2  
 10.954547402   10.90559096    10.12873461    2  
 13.450226314   13.293425631   13.992472784   2  
 9.658792215    11.043797178   16.590995612   2  
 15.572939568   12.160171303   18.698340658   2  
 11.398722248   16.164224484   -0.744739502   2  
 13.861664996   18.275595482   3.144135388    2  
 10.733966355   16.076013268   5.602149039    2  
 14.321463754   18.435338481   7.982263567    2  
 11.101540686   15.584880421   10.576307942   2  
 13.259105195   18.52495743    13.339808051   2  
 10.099656918   15.498259418   16.108217445   2  
 13.996202309   18.602256976   19.407317176   1  
 11.270017188   21.244643112   -0.451057528   2  
 13.511015246   24.164989707   2.799164234    2  
 11.315315196   21.640737412   6.023847463    2  
 13.125176745   24.709383536   7.640263955    1  
 12.101638844   22.514130474   10.77385139    2  
 14.824490311   23.411910346   13.468874992   1  
 11.288213848   22.079356259   15.543586748   2  
 14.27346423    25.036377036   19.629697898   2  
 15.671052134   -0.107820233   1.148739001    1  
 18.505368444   2.097273738    2.186384227    2  
 15.142758433   0.630572562    5.812774532    2  
 18.281749503   2.743610661    8.610408042    2  
 15.910923923   -1.281443796   10.330824415   2  
 18.748605889   2.659193993    13.806485014   2  
 15.500873778   -0.434716169   15.572680727   2  
 16.194580977   2.744246788    19.578975282   2  
 16.324937281   5.125065541    1.198620787    1  
 20.526979275   8.501898905    2.673887426    1  
 16.19690694    5.193069706    4.990204732    2  
 19.374178525   9.325969031    6.058404728    2  
 16.835571402   6.333752299    11.018325843   2  
 19.486929667   7.927471125    13.049297353   1  
 16.440693535   6.980583394    16.448677299   2  
 19.739426601   8.479311113    18.65836114    1  
 16.980961449   8.942115862    -1.629599189   1  
 17.870203529   13.599674813   3.467145901    2  
 15.902262194   10.691352339   5.275779282    1  
 19.36905165    13.547988332   7.761670779    2  
 17.023157274   10.986593302   11.778954696   2  
 19.913850406   13.96846313    13.192459117   1  
 15.546373753   10.577135175   15.282024646   1  
 18.969072599   14.186156621   19.4386767     1  
 16.426513111   16.25048586    -0.4017797     2  
 18.680277651   18.495644992   3.22898096     2  
 16.952983314   16.426752466   5.952283261    1  
 19.290008353   18.09207624    8.416655611    2  
 16.606868263   15.623402209   11.433334585   2  
 19.586076444   18.644123777   13.549568136   2  
 16.017876034   16.610004792   16.572159436   2  
 19.657630698   19.551264616   18.944480975   2  
 15.965002662   21.055432464   -0.156655912   2  
 18.484426039   24.369698855   2.216331061    2  
 16.29354323    22.735024729   6.470328561    2  
 19.195763521   24.072075242   8.772763565    1  
 16.673630229   21.126991022   10.995164031   2  
 18.89519664    23.940051651   13.967160786   2  
 15.558727201   21.249630533   16.593691934   2  
 18.938195351   24.155045423   18.858940484   2  
 22.039714233   0.262870551    -1.068128306   2  
 24.355414849   2.963342617    2.387338373    2  
 20.509375283   -0.418566917   6.020486917    2  
 23.989065648   2.656384027    7.739357963    2  
 21.410484851   -0.246834671   10.851620619   2  
 24.432739958   3.5323086      14.482260862   2  
 22.279723218   -0.424605273   15.775125953   2  
 26.449797795   3.823022978    19.202325238   2  
 20.101768308   5.84434138     0.015305679    2  
 24.213074354   7.77681231     2.672986191    2  
 21.005687625   5.020815158    5.010187403    2  
 24.173528859   7.777424875    7.488398741    2  
 21.65930241    5.467646803    11.044480954   2  
 24.640803096   8.621354528    14.485696389   2  
 21.004648073   6.11360678     15.99713582    2  
 23.860819389   7.9855914      19.31568673    2  
 20.594964044   11.214433623   -0.218469274   2  
 23.711063947   12.971348598   0.737226529    1  
 22.407121289   11.015498144   7.597611934    1  
 24.050047412   14.099439054   8.755534997    2  
 21.468473105   10.498403194   11.12878678    2  
 24.006869678   13.632892741   13.555923898   2  
 19.557512723   10.913048475   15.746984368   2  
 24.123062729   12.776142281   18.289969798   2  
 21.854143497   16.332526459   -0.354850347   2  
 25.113408629   18.206438791   2.266590073    1  
 22.739031391   15.294114979   3.879551297    2  
 24.154700434   18.745172401   8.579231771    2  
 20.926042365   15.463534818   10.706777699   1  
 24.422525264   18.293701783   13.994943589   2  
 20.864486102   15.562784416   16.562293811   2  
 23.196733054   18.367050146   17.722824757   1  
 19.608545757   21.170631653   0.780173139    1  
 23.271188189   23.955995477   2.294371556    2  
 20.990638348   21.704158864   5.845355791    2  
 24.386589701   24.263114969   7.962512485    2  
 21.478724645   21.899804185   10.780954379   2  
 23.595224168   24.063382909   13.023431222   1  
 22.495293496   21.918021374   16.282064887   2  
 24.298424292   24.311481937   18.621208684   1  
%endblock AtomicCoordinatesAndAtomicSpecies


